 vasp.5.4.4.18Apr17-6-g9f103f2a35 (build Jan 01 2020 16:14:11) complex

 executed on             LinuxIFC date 2022.03.02  19:30:57

 INCAR:
 POTCAR:    PAW_PBE Cu 22Jun2005
 POTCAR:    PAW_PBE Cu 22Jun2005
   VRHFIN =Cu: d10 p1

   TITEL  = PAW_PBE Cu 22Jun2005
   POMASS =   63.546; ZVAL   =   11.000    mass and valenz
   ENMAX  =  295.446; ENMIN  =  221.585 eV

  PAW_PBE Cu 22Jun2005                  :

 POSCAR: Cu
  positions in cartesian coordinates
 exchange correlation table for  LEXCH =        8
   RHO(1)=    0.500       N(1)  =     2000
   RHO(2)=  100.500       N(2)  =     4000

 ion  position               nearest neighbor table
   1  0.000  0.000  0.000-   2 2.69   3 2.69   4 2.69   2 2.69   3 2.69   2 2.69   4 2.69   2 2.69
                             3 2.69   4 2.69   3 2.69   4 2.69
   2  0.000  0.500  0.500-   1 2.69   3 2.69   4 2.69   1 2.69   4 2.69   1 2.69   3 2.69   1 2.69
                             3 2.69   4 2.69   4 2.69   3 2.69
   3  0.500  0.000  0.500-   1 2.69   2 2.69   4 2.69   1 2.69   4 2.69   2 2.69   4 2.69   4 2.69
                             1 2.69   2 2.69   1 2.69   2 2.69
   4  0.500  0.500  0.000-   1 2.69   2 2.69   3 2.69   2 2.69   3 2.69   1 2.69   3 2.69   3 2.69
                             1 2.69   2 2.69   2 2.69   1 2.69

  LATTYP: Found a simple cubic cell.
 ALAT       =     3.8000000000

  Lattice vectors:

 A1 = (   3.8000000000,   0.0000000000,   0.0000000000)
 A2 = (   0.0000000000,   3.8000000000,   0.0000000000)
 A3 = (   0.0000000000,   0.0000000000,   3.8000000000)

Analysis of symmetry for initial positions (statically):
 Subroutine PRICEL returns following result:

  LATTYP: Found a face centered cubic cell.
 ALAT       =     3.8000000000

[...]

   4 primitive cells build up your supercell.

 Routine SETGRP: Setting up the symmetry group for a
 simple cubic supercell.

 Subroutine GETGRP returns: Found 48 space group operations
 (whereof 48 operations were pure point group operations)
 out of a pool of 48 trial point group operations.

The static configuration has the point symmetry O_h .

Analysis of symmetry for dynamics (positions and initial velocities):
 Subroutine PRICEL returns following result:

  LATTYP: Found a face centered cubic cell.
 ALAT       =     3.8000000000

  Lattice vectors:

 A1 = (   1.9000000000,   1.9000000000,   0.0000000000)
 A2 = (   1.9000000000,   0.0000000000,  -1.9000000000)
 A3 = (   0.0000000000,   1.9000000000,  -1.9000000000)

   4 primitive cells build up your supercell.

 Routine SETGRP: Setting up the symmetry group for a
 simple cubic supercell.

 Subroutine GETGRP returns: Found 48 space group operations
 (whereof 48 operations were pure point group operations)
 out of a pool of 48 trial point group operations.

The dynamic configuration has the point symmetry O_h .

 Subroutine INISYM returns: Found 48 space group operations
 (whereof 48 operations are pure point group operations),
 and found     4 'primitive' translations

 KPOINTS: KPOINTS created by Atomic Simulation Env

Automatic generation of k-mesh.
Space group operators:
 irot       det(A)        alpha          n_x          n_y          n_z        tau_x        tau_y        tau_z
    1     1.000000     0.000001     1.000000     0.000000     0.000000     0.000000     0.000000     0.000000
    2    -1.000000     0.000001     1.000000     0.000000     0.000000     0.000000     0.000000     0.000000
    3     1.000000   120.000000    -0.577350    -0.577350    -0.577350     0.000000     0.000000     0.000000
    4    -1.000000   120.000000    -0.577350    -0.577350    -0.577350     0.000000     0.000000     0.000000
    5     1.000000   120.000000     0.577350     0.577350     0.577350     0.000000     0.000000     0.000000
    6    -1.000000   120.000000     0.577350     0.577350     0.577350     0.000000     0.000000     0.000000
    7     1.000000    90.000000     0.000000     0.000000    -1.000000     0.000000     0.000000     0.000000
    8    -1.000000    90.000000     0.000000     0.000000    -1.000000     0.000000     0.000000     0.000000
    9     1.000000   180.000000     0.000000     0.707107     0.707107     0.000000     0.000000     0.000000
   10    -1.000000   180.000000     0.000000     0.707107     0.707107     0.000000     0.000000     0.000000
   11     1.000000    90.000000     0.000000     1.000000     0.000000     0.000000     0.000000     0.000000
   12    -1.000000    90.000000     0.000000     1.000000     0.000000     0.000000     0.000000     0.000000
   13     1.000000   180.000000     0.000000     0.000000     1.000000     0.000000     0.000000     0.000000
   14    -1.000000   180.000000     0.000000     0.000000     1.000000     0.000000     0.000000     0.000000
   15     1.000000   120.000000    -0.577350     0.577350     0.577350     0.000000     0.000000     0.000000
   16    -1.000000   120.000000    -0.577350     0.577350     0.577350     0.000000     0.000000     0.000000
   17     1.000000   120.000000    -0.577350     0.577350    -0.577350     0.000000     0.000000     0.000000
   18    -1.000000   120.000000    -0.577350     0.577350    -0.577350     0.000000     0.000000     0.000000
   19     1.000000    90.000000     0.000000     0.000000     1.000000     0.000000     0.000000     0.000000
   20    -1.000000    90.000000     0.000000     0.000000     1.000000     0.000000     0.000000     0.000000
   21     1.000000    90.000000    -1.000000     0.000000     0.000000     0.000000     0.000000     0.000000
   22    -1.000000    90.000000    -1.000000     0.000000     0.000000     0.000000     0.000000     0.000000
   23     1.000000   180.000000     0.707107     0.000000     0.707107     0.000000     0.000000     0.000000
   24    -1.000000   180.000000     0.707107     0.000000     0.707107     0.000000     0.000000     0.000000
   25     1.000000   120.000000     0.577350    -0.577350     0.577350     0.000000     0.000000     0.000000
   26    -1.000000   120.000000     0.577350    -0.577350     0.577350     0.000000     0.000000     0.000000
   27     1.000000   120.000000    -0.577350    -0.577350     0.577350     0.000000     0.000000     0.000000
   28    -1.000000   120.000000    -0.577350    -0.577350     0.577350     0.000000     0.000000     0.000000
   29     1.000000   180.000000     1.000000     0.000000     0.000000     0.000000     0.000000     0.000000
   30    -1.000000   180.000000     1.000000     0.000000     0.000000     0.000000     0.000000     0.000000
   31     1.000000    90.000000     0.000000    -1.000000     0.000000     0.000000     0.000000     0.000000
   32    -1.000000    90.000000     0.000000    -1.000000     0.000000     0.000000     0.000000     0.000000
   33     1.000000   180.000000     0.707107     0.707107     0.000000     0.000000     0.000000     0.000000
   34    -1.000000   180.000000     0.707107     0.707107     0.000000     0.000000     0.000000     0.000000
   35     1.000000    90.000000     1.000000     0.000000     0.000000     0.000000     0.000000     0.000000
   36    -1.000000    90.000000     1.000000     0.000000     0.000000     0.000000     0.000000     0.000000
   37     1.000000   120.000000     0.577350    -0.577350    -0.577350     0.000000     0.000000     0.000000
   38    -1.000000   120.000000     0.577350    -0.577350    -0.577350     0.000000     0.000000     0.000000
   39     1.000000   180.000000     0.000000     1.000000     0.000000     0.000000     0.000000     0.000000
   40    -1.000000   180.000000     0.000000     1.000000     0.000000     0.000000     0.000000     0.000000
   41     1.000000   120.000000     0.577350     0.577350    -0.577350     0.000000     0.000000     0.000000
   42    -1.000000   120.000000     0.577350     0.577350    -0.577350     0.000000     0.000000     0.000000
   43     1.000000   180.000000     0.000000    -0.707107     0.707107     0.000000     0.000000     0.000000
   44    -1.000000   180.000000     0.000000    -0.707107     0.707107     0.000000     0.000000     0.000000
   45     1.000000   180.000000     0.707107    -0.707107     0.000000     0.000000     0.000000     0.000000
   46    -1.000000   180.000000     0.707107    -0.707107     0.000000     0.000000     0.000000     0.000000
   47     1.000000   180.000000     0.707107     0.000000    -0.707107     0.000000     0.000000     0.000000
   48    -1.000000   180.000000     0.707107     0.000000    -0.707107     0.000000     0.000000     0.000000

 Subroutine IBZKPT returns following result:

 Found     10 irreducible k-points:

 Following reciprocal coordinates:
            Coordinates               Weight
  0.083333  0.083333  0.083333      8.000000
  0.250000  0.083333  0.083333     24.000000
  0.416667  0.083333  0.083333     24.000000
  0.250000  0.250000  0.083333     24.000000
  0.416667  0.250000  0.083333     48.000000
  0.416667  0.416667  0.083333     24.000000
  0.250000  0.250000  0.250000      8.000000
  0.416667  0.250000  0.250000     24.000000
  0.416667  0.416667  0.250000     24.000000
  0.416667  0.416667  0.416667      8.000000

 Following cartesian coordinates:
            Coordinates               Weight
  0.021930  0.021930  0.021930      8.000000
  0.065789  0.021930  0.021930     24.000000
  0.109649  0.021930  0.021930     24.000000
  0.065789  0.065789  0.021930     24.000000
  0.109649  0.065789  0.021930     48.000000
  0.109649  0.109649  0.021930     24.000000
  0.065789  0.065789  0.065789      8.000000
  0.109649  0.065789  0.065789     24.000000
  0.109649  0.109649  0.065789     24.000000
  0.109649  0.109649  0.109649      8.000000

 SYSTEM =  unknown system
 POSCAR =  Cu

 Startparameter for this run:
   NWRITE =      2    write-flag & timer
   PREC   = accura    normal or accurate (medium, high low for compatibility)
   ISTART =      0    job   : 0-new  1-cont  2-samecut
   ICHARG =      2    charge: 1-file 2-atom 10-const
   ISPIN  =      1    spin polarized calculation?
   LNONCOLLINEAR =      F non collinear calculations
   LSORBIT =      F    spin-orbit coupling
   INIWAV =      1    electr: 0-lowe 1-rand  2-diag
   LASPH  =      F    aspherical Exc in radial PAW
   METAGGA=      F    non-selfconsistent MetaGGA calc.

 Electronic Relaxation 1
   ENCUT  =  300.0 eV  22.05 Ry    4.70 a.u.   5.37  5.37  5.37*2*pi/ulx,y,z
   ENINI  =  300.0     initial cutoff
   ENAUG  =  587.0 eV  augmentation charge cutoff
   NELM   =    100;   NELMIN=  4; NELMDL= -5     # of ELM steps
   EDIFF  = 0.1E-04   stopping-criterion for ELM
   LREAL  =      F    real-space projection
   NLSPLINE    = F    spline interpolate recip. space projectors
   LCOMPAT=      F    compatible to vasp.4.4
   GGA_COMPAT  = T    GGA compatible to vasp.4.4-vasp.4.6
   LMAXPAW     = -100 max onsite density
   LMAXMIX     =    2 max onsite mixed and CHGCAR
   VOSKOWN=      0    Vosko Wilk Nusair interpolation
   ROPT   =    0.00000
 Ionic relaxation
   EDIFFG = 0.1E-03   stopping-criterion for IOM
   NSW    =    100    number of steps for IOM
   NBLOCK =      1;   KBLOCK =    100    inner block; outer block
   IBRION =      2    ionic relax: 0-MD 1-quasi-New 2-CG
[...]
 use partial core corrections
 calculate Harris-corrections to forces
   (improved forces if not selfconsistent)
 use gradient corrections
 use of overlap-Matrix (Vanderbilt PP)
 Gauss-broadening in eV      SIGMA  =   0.05

  energy-cutoff  :      300.00
  volume of cell :       54.87
      direct lattice vectors                 reciprocal lattice vectors
     3.800000000  0.000000000  0.000000000     0.263157895  0.000000000  0.000000000
     0.000000000  3.800000000  0.000000000     0.000000000  0.263157895  0.000000000
     0.000000000  0.000000000  3.800000000     0.000000000  0.000000000  0.263157895

  length of vectors
     3.800000000  3.800000000  3.800000000     0.263157895  0.263157895  0.263157895

 k-points in units of 2pi/SCALE and weight: KPOINTS created by Atomic Simulation Env
   0.02192982  0.02192982  0.02192982       0.037
   0.06578947  0.02192982  0.02192982       0.111
   0.10964912  0.02192982  0.02192982       0.111
   0.06578947  0.06578947  0.02192982       0.111
   0.10964912  0.06578947  0.02192982       0.222
   0.10964912  0.10964912  0.02192982       0.111
   0.06578947  0.06578947  0.06578947       0.037
   0.10964912  0.06578947  0.06578947       0.111
   0.10964912  0.10964912  0.06578947       0.111
   0.10964912  0.10964912  0.10964912       0.037

 k-points in reciprocal lattice and weights: KPOINTS created by Atomic Simulation Env
   0.08333333  0.08333333  0.08333333       0.037
   0.25000000  0.08333333  0.08333333       0.111
   0.41666667  0.08333333  0.08333333       0.111
   0.25000000  0.25000000  0.08333333       0.111
   0.41666667  0.25000000  0.08333333       0.222
   0.41666667  0.41666667  0.08333333       0.111
   0.25000000  0.25000000  0.25000000       0.037
   0.41666667  0.25000000  0.25000000       0.111
   0.41666667  0.41666667  0.25000000       0.111
   0.41666667  0.41666667  0.41666667       0.037

 position of ions in fractional coordinates (direct lattice)
   0.00000000  0.00000000  0.00000000
   0.00000000  0.50000000  0.50000000
   0.50000000  0.00000000  0.50000000
   0.50000000  0.50000000  0.00000000

 position of ions in cartesian coordinates  (Angst):
   0.00000000  0.00000000  0.00000000
   0.00000000  1.90000000  1.90000000
   1.90000000  0.00000000  1.90000000
   1.90000000  1.90000000  0.00000000

 k-point  1 :   0.0833 0.0833 0.0833  plane waves:     655
 k-point  2 :   0.2500 0.0833 0.0833  plane waves:     660
 k-point  3 :   0.4167 0.0833 0.0833  plane waves:     644
 k-point  4 :   0.2500 0.2500 0.0833  plane waves:     651
 k-point  5 :   0.4167 0.2500 0.0833  plane waves:     645
 k-point  6 :   0.4167 0.4167 0.0833  plane waves:     648
 k-point  7 :   0.2500 0.2500 0.2500  plane waves:     654
 k-point  8 :   0.4167 0.2500 0.2500  plane waves:     648
 k-point  9 :   0.4167 0.4167 0.2500  plane waves:     645
 k-point 10 :   0.4167 0.4167 0.4167  plane waves:     648

 maximum and minimum number of plane-waves per node :       331      320

 maximum number of plane-waves:       660
 maximum index in each direction:
   IXMAX=    5   IYMAX=    5   IZMAX=    5
   IXMIN=   -5   IYMIN=   -5   IZMIN=   -5

 parallel 3D FFT for wavefunctions:
    minimum data exchange during FFTs selected (reduces bandwidth)
 parallel 3D FFT for charge:
    minimum data exchange during FFTs selected (reduces bandwidth)

 Broyden mixing: mesh for mixing (old mesh)
   NGX = 11   NGY = 11   NGZ = 11
  (NGX  = 48   NGY  = 48   NGZ  = 48)
  gives a total of   1331 points

 initial charge density was supplied:
 charge density of overlapping atoms calculated
 number of electron      44.0000000 magnetization
 keeping initial charge density in first step

 Maximum index for augmentation-charges         1721 (set IRDMAX)

 First call to EWALD:  gamma=   0.466
 Maximum number of real-space cells 3x 3x 3
 Maximum number of reciprocal cells 3x 3x 3

--------------------------------------- Iteration      1(   1)  ---------------------------------------

 eigenvalue-minimisations  :   528
 total energy-change (2. order) : 0.2815358E+03  (-0.1439250E+04)
 number of electron      44.0000000 magnetization
 augmentation part       44.0000000 magnetization

 Free energy of the ion-electron system (eV)
  alpha Z        PSCENC =       213.24625660
  Ewald energy   TEWEN  =     -4204.49773138
  -Hartree energ DENC   =     -1566.23131134
  -exchange      EXHF   =         0.00000000
  -V(xc)+E(xc)   XCENC  =       181.59356110
  PAW double counting   =      4912.82663951    -5336.19386850
  entropy T*S    EENTRO =        -0.00014773
  eigenvalues    EBANDS =       517.03805984
  atomic energy  EATOM  =      5563.75431560
  Solvation  Ediel_sol  =         0.00000000
  free energy    TOTEN  =       281.53577372 eV

  energy without entropy =      281.53592144  energy(sigma->0) =      281.53584758

[...]

 eigenvalue-minimisations  :   520
 total energy-change (2. order) :-0.2796384E+03  (-0.2743909E+03)
 number of electron      44.0000000 magnetization
 augmentation part       44.0000000 magnetization

[...]

 Broyden mixing:
  rms(total) = 0.14719E+01    rms(broyden)= 0.14716E+01
  rms(prec ) = 0.33979E+01
  weight for this iteration     100.00

[...]

 eigenvalues of (default mixing * dielectric matrix)
  average eigenvalue GAMMA=   0.6130
  0.6130

[...]

 average (electrostatic) potential at core
  the test charge radii are     0.9430
  (the norm of the test charge is              1.0000)
       1 -65.0728       2 -65.0728       3 -65.0728       4 -65.0728

 E-fermi :   5.7092     XC(G=0): -11.8762     alpha+bet :-11.5573

 k-point     1 :       0.0833    0.0833    0.0833
  band No.  band energies     occupation
      1      -2.1730      2.00000
      2       1.8708      2.00000
      3       1.8708      2.00000
      4       1.8708      2.00000
      5       2.2315      2.00000
      6       2.2315      2.00000
      7       2.2315      2.00000
      8       3.2382      2.00000
      9       3.3154      2.00000
     10       3.3154      2.00000
     11       3.9215      2.00000
     12       3.9215      2.00000
     13       4.2688      2.00000
     14       4.2688      2.00000
     15       4.2688      2.00000
     16       4.3089      2.00000
     17       4.3089      2.00000
     18       4.3089      2.00000
     19       4.4675      2.00000
     20       4.4675      2.00000
     21       4.4675      2.00000
     22       7.2917      0.00000
     23       7.2917      0.00000
     24       7.2917      0.00000
     25      12.7684      0.00000
     26      12.7684      0.00000

[...]

 soft charge-density along one line, spin component           1
         0         1         2         3         4         5         6         7         8         9
 total charge-density along one line

------------------------ aborting loop because EDIFF is reached ----------------------------------------

  FORCE on cell =-STRESS in cart. coord.  units (eV):
  Direction    XX          YY          ZZ          XY          YZ          ZX
  Alpha Z   213.24626   213.24626   213.24626
  Ewald   -1401.49986 -1401.49986 -1401.49986     0.00000    -0.00000    -0.00000
  Hartree   493.41090   493.41090   493.41090    -0.00000    -0.00000    -0.00000
  E(xc)    -256.42709  -256.42709  -256.42709    -0.00000    -0.00000    -0.00000
  Local     305.30629   305.30629   305.30629    -0.00000    -0.00000    -0.00000
  n-local   -88.51250   -95.64579   -97.80050     0.15293     2.73451     1.53213
  augment   378.57411   378.57411   378.57411    -0.00000     0.00000    -0.00000
  Kinetic   363.07214   355.94284   350.12050    -3.70872     0.01639    -0.99625
  Fock        0.00000     0.00000     0.00000     0.00000     0.00000     0.00000
  Total      -4.99716    -4.99716    -4.99716    -0.00000     0.00000    -0.00000
  in kB    -145.90923  -145.90923  -145.90923    -0.00000     0.00000    -0.00000

 VOLUME and BASIS-vectors are now :
  energy-cutoff  :      300.00
  volume of cell :       54.87
      direct lattice vectors                 reciprocal lattice vectors
     3.800000000  0.000000000  0.000000000     0.263157895  0.000000000  0.000000000
     0.000000000  3.800000000  0.000000000     0.000000000  0.263157895  0.000000000
     0.000000000  0.000000000  3.800000000     0.000000000  0.000000000  0.263157895

[...]

 FORCES acting on ions
    electron-ion (+dipol)            ewald-force                    non-local-force                 convergence-correction
   -.586E-13 -.877E-13 -.920E-13   0.634E-14 -.744E-14 0.131E-14   -.106E-21 0.199E-22 0.000E+00   0.780E-13 -.320E-14 -.228E-13
   -.591E-13 0.693E-12 0.708E-12   0.624E-14 0.171E-13 0.554E-14   0.000E+00 0.000E+00 0.000E+00   0.628E-13 0.171E-13 0.507E-13
   0.702E-12 -.697E-13 -.501E-11   -.489E-14 -.188E-13 0.561E-14   0.265E-22 -.529E-22 -.662E-22   0.458E-14 -.231E-13 0.347E-13
   0.699E-12 -.335E-11 -.487E-11   -.499E-14 0.576E-14 -.105E-13   0.000E+00 0.000E+00 0.106E-21   0.115E-13 -.731E-15 -.392E-13
   0.128E-11 -.282E-11 -.927E-11   0.269E-14 -.337E-14 0.190E-14   -.794E-22 -.331E-22 0.397E-22   0.157E-12 -.989E-14 0.234E-13

 POSITION                                       TOTAL-FORCE (eV/Angst)
      0.00000      0.00000      0.00000         0.000000      0.000000     -0.000000
      0.00000      1.90000      1.90000        -0.000000      0.000000      0.000000
      1.90000      0.00000      1.90000        -0.000000      0.000000     -0.000000
      1.90000      1.90000      0.00000         0.000000     -0.000000     -0.000000
    total drift:                                0.000000     -0.000000     -0.000000

  FREE ENERGIE OF THE ION-ELECTRON SYSTEM (eV)
  free  energy   TOTEN  =       -14.56516100 eV

  energy  without entropy=      -14.56354213  energy(sigma->0) =      -14.56435156

[...]

 d Force = 0.0000000E+00[ 0.000E+00, 0.000E+00]  d Energy = 0.2930037E+00-0.293E+00
 d Force = 0.0000000E+00[ 0.000E+00, 0.000E+00]  d Ewald  = 0.2696527E+03-0.270E+03

 Steepest descent step on ions:
 trial-energy change:   -0.293004  1 .order   -0.185925   -0.903521    0.531671
  (g-gl).g = 0.904E+00      g.g   = 0.904E+00  gl.gl    = 0.000E+00
 g(Force)  = 0.245E-58   g(Stress)= 0.904E+00 ortho     = 0.000E+00
 gamma     =   0.00000
 trial     =   1.00000
 opt step  =   0.71983  (harmonic =   0.62955) maximal distance =0.00000000
 next E    =   -14.930289   (d E  =  -0.36513)

[...]

 d Force = 0.0000000E+00[ 0.000E+00, 0.000E+00]  d Energy = 0.5776830E-01-0.578E-01
 d Force = 0.0000000E+00[ 0.000E+00, 0.000E+00]  d Ewald  =-0.7897525E+02 0.790E+02

[...]

 eigenvalue-minimisations  :   534
 total energy-change (2. order) :-0.1771353E-01  (-0.2454588E-01)
 number of electron      43.9999965 magnetization
 augmentation part       27.9045546 magnetization

[...]

 Broyden mixing:
  rms(total) = 0.86749E-03    rms(broyden)= 0.86694E-03
  rms(prec ) = 0.19785E-02
  weight for this iteration     100.00

 eigenvalues of (default mixing * dielectric matrix)
  average eigenvalue GAMMA=   1.6960
  0.5851  0.9963  2.6013  2.6013

[...]

--------------------------------------- Iteration      4(   6)  ---------------------------------------

 eigenvalue-minimisations  :   283
 total energy-change (2. order) : 0.3477727E-05  (-0.6619019E-06)
 number of electron      43.9999965 magnetization
 augmentation part       28.0434949 magnetization

 Free energy of the ion-electron system (eV)
  alpha Z        PSCENC =       244.61598114
  Ewald energy   TEWEN  =     -4401.30967030
  -Hartree energ DENC   =     -1363.93149872
  -exchange      EXHF   =         0.00000000
  -V(xc)+E(xc)   XCENC  =       178.58265363
  PAW double counting   =      5245.38559332    -5676.69288180
  entropy T*S    EENTRO =        -0.01092670
  eigenvalues    EBANDS =       194.69056705
  atomic energy  EATOM  =      5563.75431560
  Solvation  Ediel_sol  =         0.00000000
  free energy    TOTEN  =       -14.91586677 eV

  energy without entropy =      -14.90494008  energy(sigma->0) =      -14.91040342

 average (electrostatic) potential at core
  the test charge radii are     0.9430
  (the norm of the test charge is              1.0000)
       1 -63.8376       2 -63.8376       3 -63.8376       4 -63.8376

 E-fermi :   7.1903     XC(G=0): -12.6574     alpha+bet :-13.2575

[...]

 k-point    10 :       0.4167    0.4167    0.4167
  band No.  band energies     occupation
      1       2.2503      2.00000
      2       2.5342      2.00000
      3       2.5342      2.00000
      4       2.5342      2.00000
      5       4.3180      2.00000
      6       4.3180      2.00000
      7       4.3180      2.00000
      8       4.4332      2.00000
      9       4.4332      2.00000
     10       4.4846      2.00000
     11       4.4846      2.00000
     12       4.4846      2.00000
     13       5.1433      2.00000
     14       5.1433      2.00000
     15       5.1433      2.00000
     16       5.4845      2.00000
     17       5.7208      2.00000
     18       5.7208      2.00000
     19       5.7998      2.00000
     20       5.7998      2.00000
     21       5.7998      2.00000
     22       7.1518      1.72323
     23       7.1518      1.72323
     24       7.1518      1.72323
     25      11.4103      0.00000
     26      11.4103      0.00000

 soft charge-density along one line, spin component           1
         0         1         2         3         4         5         6         7         8         9
 total charge-density along one line

------------------------ aborting loop because EDIFF is reached ----------------------------------------

  FORCE on cell =-STRESS in cart. coord.  units (eV):
  Direction    XX          YY          ZZ          XY          YZ          ZX
  Alpha Z   244.61598   244.61598   244.61598
  Ewald   -1467.10387 -1467.10387 -1467.10387     0.00000    -0.00000     0.00000
  Hartree   454.63061   454.63061   454.63061    -0.00000    -0.00000    -0.00000
  E(xc)    -257.23515  -257.23515  -257.23515    -0.00000    -0.00000    -0.00000
  Local     371.68587   371.68587   371.68587    -0.00000     0.00000     0.00000
  n-local   -79.15144   -86.75527   -88.40911     0.63395     2.68127     1.43212
  augment   379.44167   379.44167   379.44167    -0.00000     0.00000     0.00000
  Kinetic   365.60391   358.15873   352.50508    -3.39799    -0.44208    -1.45461
  Fock        0.00000     0.00000     0.00000     0.00000     0.00000     0.00000
  Total       0.01908     0.01908     0.01908     0.00000     0.00000    -0.00000
  in kB       0.63921     0.63921     0.63921     0.00000     0.00000    -0.00000

 VOLUME and BASIS-vectors are now :
  energy-cutoff  :      300.00
  volume of cell :       47.84
      direct lattice vectors                 reciprocal lattice vectors
     3.630076631  0.000000000 -0.000000000     0.275476278  0.000000000 -0.000000000
    -0.000000000  3.630076631  0.000000000    -0.000000000  0.275476278  0.000000000
     0.000000000  0.000000000  3.630076631     0.000000000  0.000000000  0.275476278

  length of vectors
     3.630076631  3.630076631  3.630076631     0.275476278  0.275476278  0.275476278

 FORCES acting on ions
    electron-ion (+dipol)            ewald-force                    non-local-force                 convergence-correction
   -.257E-13 -.488E-13 -.100E-12   0.879E-14 0.627E-14 -.446E-14   0.506E-22 0.794E-22 0.000E+00   0.215E-13 -.523E-13 -.147E-13
   -.264E-13 0.664E-12 0.621E-12   0.870E-14 -.196E-13 0.516E-14   -.540E-22 -.794E-22 0.000E+00   0.316E-13 -.397E-13 0.245E-13
   0.692E-12 -.592E-13 -.521E-11   -.770E-14 0.206E-13 0.513E-14   -.498E-22 -.794E-22 0.000E+00   0.155E-13 -.328E-13 0.476E-14
   0.694E-12 -.331E-11 -.487E-11   -.779E-14 -.521E-14 -.758E-14   0.528E-22 0.794E-22 0.000E+00   0.597E-15 -.710E-14 -.481E-13
   0.133E-11 -.276E-11 -.956E-11   0.200E-14 0.211E-14 -.175E-14   -.340E-24 0.000E+00 0.000E+00   0.692E-13 -.132E-12 -.335E-13

 POSITION                                       TOTAL-FORCE (eV/Angst)
      0.00000      0.00000     -0.00000        -0.000000     -0.000000     -0.000000
     -0.00000      1.81504      1.81504        -0.000000      0.000000      0.000000
      1.81504      0.00000      1.81504         0.000000      0.000000     -0.000000
      1.81504      1.81504     -0.00000        -0.000000     -0.000000     -0.000000
    total drift:                                0.000000     -0.000000     -0.000000

  FREE ENERGIE OF THE ION-ELECTRON SYSTEM (eV)
  free  energy   TOTEN  =       -14.91586677 eV

  energy  without entropy=      -14.90494008  energy(sigma->0) =      -14.91040342

 d Force = 0.0000000E+00[ 0.000E+00, 0.000E+00]  d Energy =-0.6625806E-04 0.663E-04
 d Force = 0.0000000E+00[ 0.000E+00, 0.000E+00]  d Ewald  = 0.6134500E+01-0.613E+01

 reached required accuracy - stopping structural energy minimisation